solution status: optimal solution found
objective value:                                    9
C0003                                               1 	(obj:0)
C0025                                               1 	(obj:0)
C0052                                               1 	(obj:0)
C0074                                               1 	(obj:0)
C0091                                               1 	(obj:0)
C0114                                               1 	(obj:0)
C0133                                               1 	(obj:0)
C0159                                               1 	(obj:0)
C0181                                               1 	(obj:0)
C0203                                               1 	(obj:0)
C0227                                               1 	(obj:0)
C0249                                               1 	(obj:0)
C0266                                               1 	(obj:0)
C0293                                               1 	(obj:0)
C0310                                               1 	(obj:0)
C0338                                               1 	(obj:0)
C0359                                               1 	(obj:0)
C0376                                               1 	(obj:0)
C0405                                               1 	(obj:0)
C0423                                               1 	(obj:0)
C0443                                               1 	(obj:0)
C0466                                               1 	(obj:0)
C0485                                               1 	(obj:0)
C0512                                               1 	(obj:0)
C0534                                               1 	(obj:0)
C0556                                               1 	(obj:0)
C0576                                               1 	(obj:0)
C0595                                               1 	(obj:0)
C0620                                               1 	(obj:0)
C0644                                               1 	(obj:0)
C0667                                               1 	(obj:0)
C0684                                               1 	(obj:0)
C0713                                               1 	(obj:0)
C0732                                               1 	(obj:0)
C0757                                               1 	(obj:0)
C0771                                               1 	(obj:1)
C0772                                               1 	(obj:1)
C0773                                               1 	(obj:1)
C0774                                               1 	(obj:1)
C0775                                               1 	(obj:1)
C0776                                               1 	(obj:1)
C0777                                               1 	(obj:1)
C0778                                               1 	(obj:1)
C0779                                               1 	(obj:1)
